* ENCODING=ISO-8859-1
NAME          CPLEX
ROWS
 N  obj1    
 G  c1      
 G  c2      
 G  c3      
 G  c4      
 G  c5      
 G  c6      
 G  c7      
 G  c8      
 G  c9      
 G  c10     
 G  c11     
 G  c12     
 G  c13     
 G  c14     
 G  c15     
 G  c16     
 G  c17     
 G  c18     
 G  c19     
 G  c20     
 G  c21     
 G  c22     
 G  c23     
 G  c24     
 G  c25     
 G  c26     
 G  c27     
 G  c28     
 G  c29     
 G  c30     
COLUMNS
    MARK0000  'MARKER'                 'INTORG'
    x1        obj1                            1
    x1        c1                            980
    x1        c3                            131
    x1        c4                            302
    x2        obj1                            1
    x2        c17                           601
    x2        c21                           571
    x2        c27                           265
    x2        c29                           984
    x3        obj1                            1
    x3        c11                           251
    x3        c23                           112
    x3        c25                           800
    x4        obj1                            1
    x4        c7                            732
    x4        c9                            944
    x4        c18                           908
    x4        c20                           427
    x4        c21                           706
    x5        obj1                            1
    x5        c27                           686
    x5        c28                           831
    x6        obj1                            1
    x6        c1                            768
    x6        c22                           785
    x6        c30                           522
    x7        obj1                            1
    x7        c23                           918
    x8        obj1                            1
    x8        c6                            103
    x8        c12                           625
    x8        c27                           632
    x8        c28                           988
    x9        obj1                            1
    x10       obj1                            1
    x11       obj1                            1
    x11       c8                            548
    x11       c13                           985
    x11       c21                           800
    x11       c22                           405
    x11       c23                           267
    x12       obj1                            1
    x12       c6                            269
    x12       c16                           264
    x12       c17                           787
    x12       c23                           322
    x12       c25                           673
    x13       obj1                            1
    x13       c1                            628
    x13       c2                            790
    x13       c8                            715
    x13       c18                           321
    x14       obj1                            1
    x14       c9                            950
    x14       c17                           764
    x15       obj1                            1
    x15       c25                           638
    x16       obj1                            1
    x16       c1                            483
    x16       c3                            814
    x16       c22                           779
    x16       c25                           521
    x16       c28                           108
    x16       c29                           913
    x17       obj1                            1
    x17       c12                           454
    x17       c13                           183
    x17       c16                           379
    x17       c18                           394
    x17       c25                           249
    x17       c27                           192
    x18       obj1                            1
    x18       c29                           117
    x19       obj1                            1
    x19       c8                            395
    x19       c12                           649
    x19       c25                           773
    x19       c27                           129
    x20       obj1                            1
    x20       c14                           916
    x20       c20                           292
    x20       c29                           609
    x21       obj1                            1
    x21       c4                            200
    x21       c30                           589
    x22       obj1                            1
    x22       c14                           714
    x22       c18                           371
    x22       c23                           790
    x22       c26                           857
    x23       obj1                            1
    x23       c4                            759
    x23       c6                            237
    x23       c10                           987
    x23       c25                           696
    x24       obj1                            1
    x24       c8                            367
    x24       c18                           126
    x25       obj1                            1
    x25       c16                           297
    x25       c30                           391
    x26       obj1                            1
    x26       c2                            578
    x26       c24                           768
    x26       c30                           656
    x27       obj1                            1
    x27       c3                            906
    x27       c5                            537
    x27       c17                           334
    x27       c23                           503
    x27       c25                           386
    x28       obj1                            1
    x28       c17                           489
    x28       c27                           308
    x29       obj1                            1
    x29       c6                            919
    x29       c7                            297
    x29       c11                          1000
    x29       c19                           939
    x30       obj1                            1
    x31       obj1                            1
    x31       c8                            347
    x31       c14                           406
    x31       c21                           790
    x31       c22                           807
    x31       c29                           661
    x32       obj1                            1
    x32       c1                            706
    x32       c3                            765
    x32       c17                           668
    x32       c21                           413
    x33       obj1                            1
    x33       c6                            383
    x33       c15                           210
    x34       obj1                            1
    x35       obj1                            1
    x35       c1                            120
    x35       c27                           138
    x36       obj1                            1
    x36       c10                           487
    x36       c17                           971
    x37       obj1                            1
    x37       c2                            514
    x37       c9                            983
    x37       c19                           329
    x37       c20                           891
    x37       c30                           383
    x38       obj1                            1
    x38       c12                           421
    x38       c26                           562
    x38       c28                           839
    x39       obj1                            1
    x39       c7                            283
    x40       obj1                            1
    x40       c1                            603
    x40       c2                            548
    x40       c14                           282
    x40       c22                           444
    x41       obj1                            1
    x41       c15                           499
    x41       c17                           765
    x42       obj1                            1
    x42       c2                            598
    x42       c13                           757
    x43       obj1                            1
    x43       c8                            951
    x43       c11                           239
    x43       c15                           876
    x43       c21                           183
    x44       obj1                            1
    x44       c5                            138
    x45       obj1                            1
    x45       c11                           817
    x45       c18                           373
    x46       obj1                            1
    x47       obj1                            1
    x47       c5                            605
    x47       c8                            393
    x47       c20                           718
    x47       c21                           184
    x47       c28                           886
    x48       obj1                            1
    x48       c21                           749
    x48       c22                           714
    x48       c30                           936
    x49       obj1                            1
    x49       c23                           649
    x50       obj1                            1
    x50       c2                            267
    x50       c3                            890
    x50       c16                           956
    x50       c18                           916
    x50       c24                           886
    x51       obj1                            1
    x51       c3                            143
    x51       c17                           315
    x52       obj1                            1
    x52       c8                            324
    x52       c13                           776
    x52       c21                           126
    x53       obj1                            1
    x53       c2                            839
    x53       c12                           264
    x53       c16                           792
    x53       c23                           274
    x53       c26                           134
    x53       c30                           871
    x54       obj1                            1
    x54       c2                            923
    x54       c7                            901
    x54       c22                           279
    x54       c30                           431
    x55       obj1                            1
    x55       c2                            798
    x55       c11                           520
    x55       c24                           714
    x56       obj1                            1
    x56       c6                            349
    x56       c7                            763
    x56       c27                           315
    x57       obj1                            1
    x57       c23                           886
    x57       c24                           706
    x58       obj1                            1
    x58       c3                            431
    x58       c5                            807
    x58       c27                           122
    x59       obj1                            1
    x59       c3                            612
    x59       c7                            314
    x59       c16                           304
    x59       c29                           685
    x59       c30                           835
    x60       obj1                            1
    x60       c8                            322
    x60       c9                            596
    x60       c10                           109
    x60       c18                           660
    x60       c19                           619
    MARK0001  'MARKER'                 'INTEND'
RHS
    rhs       c1                           2144
    rhs       c2                           2928
    rhs       c3                           2346
    rhs       c4                            631
    rhs       c5                           1044
    rhs       c6                           1130
    rhs       c7                           1645
    rhs       c8                           2181
    rhs       c9                           1737
    rhs       c10                           792
    rhs       c11                          1414
    rhs       c12                          1207
    rhs       c13                          1351
    rhs       c14                          1159
    rhs       c15                           793
    rhs       c16                          1496
    rhs       c17                          2847
    rhs       c18                          2035
    rhs       c19                           944
    rhs       c20                          1164
    rhs       c21                          2261
    rhs       c22                          2107
    rhs       c23                          2361
    rhs       c24                          1537
    rhs       c25                          2368
    rhs       c26                           777
    rhs       c27                          1394
    rhs       c28                          1826
    rhs       c29                          1985
    rhs       c30                          2807
BOUNDS
 LI bnd       x1        0
 LI bnd       x2        0
 LI bnd       x3        0
 LI bnd       x4        0
 LI bnd       x5        0
 LI bnd       x6        0
 LI bnd       x7        0
 LI bnd       x8        0
 LI bnd       x9        0
 LI bnd       x10       0
 LI bnd       x11       0
 LI bnd       x12       0
 LI bnd       x13       0
 LI bnd       x14       0
 LI bnd       x15       0
 LI bnd       x16       0
 LI bnd       x17       0
 LI bnd       x18       0
 LI bnd       x19       0
 LI bnd       x20       0
 LI bnd       x21       0
 LI bnd       x22       0
 LI bnd       x23       0
 LI bnd       x24       0
 LI bnd       x25       0
 LI bnd       x26       0
 LI bnd       x27       0
 LI bnd       x28       0
 LI bnd       x29       0
 LI bnd       x30       0
 LI bnd       x31       0
 LI bnd       x32       0
 LI bnd       x33       0
 LI bnd       x34       0
 LI bnd       x35       0
 LI bnd       x36       0
 LI bnd       x37       0
 LI bnd       x38       0
 LI bnd       x39       0
 LI bnd       x40       0
 LI bnd       x41       0
 LI bnd       x42       0
 LI bnd       x43       0
 LI bnd       x44       0
 LI bnd       x45       0
 LI bnd       x46       0
 LI bnd       x47       0
 LI bnd       x48       0
 LI bnd       x49       0
 LI bnd       x50       0
 LI bnd       x51       0
 LI bnd       x52       0
 LI bnd       x53       0
 LI bnd       x54       0
 LI bnd       x55       0
 LI bnd       x56       0
 LI bnd       x57       0
 LI bnd       x58       0
 LI bnd       x59       0
 LI bnd       x60       0
ENDATA
